(set-option :print-success false)
(set-logic QF_UF)
(declare-sort x6 0)
(declare-sort x104 0)
(declare-fun x77 (x104 x104) x104)
(declare-fun x64 (x104 x104) x104)
(declare-fun x100 () x104)
(declare-fun x43 () x104)
(declare-fun x19 () x104)
(declare-fun x105 () x104)
(declare-fun x68 () x104)
(assert (let ((x7 (x64 x100 x19)) (x74 (x64 x43 x43)) (x59 (x64 x68 x105)) (x5 (x64 x100 x105)) (x124 (x64 x19 x100)) (x150 (x64 x19 x68)) (x38 (x64 x68 x43)) (x148 (x64 x43 x105)) (x89 (x64 x68 x68)) (x80 (x64 x105 x43)) (x84 (x64 x68 x19)) (x110 (x64 x43 x100)) (x33 (x64 x19 x105)) (x27 (x64 x100 x43)) (x26 (x64 x43 x19)) (x102 (x64 x105 x105)) (x97 (x64 x105 x68)) (x107 (x64 x19 x19)) (x54 (x64 x43 x68)) (x11 (x64 x100 x68)) (x157 (x64 x105 x100)) (x24 (x64 x68 x100)) (x23 (x64 x105 x19)) (x17 (x64 x19 x43)) (x156 (x64 x100 x100))) (or (or (and (not (= (x64 x24 x24) x68)) (and (not (= (x64 x156 x156) x100)) (and (and (not (= (x64 x157 x157) x105)) (not (= x43 (x64 x110 x110)))) (not (= x19 (x64 x124 x124)))))) (or (and (and (not (= x100 (x64 x7 x7))) (and (not (= (x64 x107 x107) x19)) (and (not (= (x64 x26 x26) x43)) (not (= (x64 x23 x23) x105))))) (not (= x68 (x64 x84 x84)))) (or (and (and (not (= (x64 x5 x5) x100)) (and (not (= (x64 x33 x33) x19)) (and (not (= (x64 x102 x102) x105)) (not (= (x64 x148 x148) x43))))) (not (= x68 (x64 x59 x59)))) (and (not (= (x64 x38 x38) x68)) (and (not (= x100 (x64 x27 x27))) (and (and (not (= (x64 x74 x74) x43)) (not (= x105 (x64 x80 x80)))) (not (= (x64 x17 x17) x19)))))))) (and (not (= (x64 x89 x89) x68)) (and (and (and (not (= x43 (x64 x54 x54))) (not (= (x64 x97 x97) x105))) (not (= (x64 x150 x150) x19))) (not (= (x64 x11 x11) x100)))))))
(assert (let ((x107 (x64 x19 x19)) (x89 (x64 x68 x68)) (x7 (x64 x100 x19)) (x157 (x64 x105 x100)) (x23 (x64 x105 x19)) (x27 (x64 x100 x43)) (x24 (x64 x68 x100)) (x148 (x64 x43 x105)) (x156 (x64 x100 x100)) (x102 (x64 x105 x105)) (x17 (x64 x19 x43)) (x74 (x64 x43 x43)) (x84 (x64 x68 x19)) (x5 (x64 x100 x105)) (x33 (x64 x19 x105)) (x110 (x64 x43 x100)) (x38 (x64 x68 x43)) (x80 (x64 x105 x43)) (x26 (x64 x43 x19)) (x97 (x64 x105 x68)) (x124 (x64 x19 x100)) (x59 (x64 x68 x105)) (x150 (x64 x19 x68)) (x11 (x64 x100 x68)) (x54 (x64 x43 x68))) (and (and (and (not (= x11 x89)) (and (not (= x89 x150)) (and (not (= x150 x11)) (and (and (and (not (= x97 x150)) (and (and (not (= x11 x54)) (and (not (= x150 x54)) (not (= x54 x97)))) (not (= x89 x54)))) (not (= x11 x97))) (not (= x97 x89)))))) (and (and (and (and (and (not (= x157 x24)) (and (and (not (= x157 x124)) (and (and (not (= x110 x156)) (and (not (= x110 x157)) (not (= x124 x110)))) (not (= x110 x24)))) (not (= x157 x156)))) (not (= x124 x156))) (not (= x124 x24))) (not (= x156 x24))) (and (and (not (= x84 x7)) (and (and (and (and (and (not (= x107 x23)) (and (and (not (= x26 x7)) (and (not (= x23 x26)) (not (= x107 x26)))) (not (= x26 x84)))) (not (= x7 x23))) (not (= x84 x23))) (not (= x7 x107))) (not (= x107 x84)))) (and (and (not (= x27 x38)) (and (not (= x38 x17)) (and (not (= x27 x17)) (and (and (not (= x80 x27)) (and (and (and (not (= x27 x74)) (and (not (= x74 x17)) (not (= x74 x80)))) (not (= x74 x38))) (not (= x17 x80)))) (not (= x38 x80)))))) (and (and (and (and (and (and (not (= x33 x102)) (and (not (= x148 x59)) (and (not (= x148 x5)) (and (not (= x148 x102)) (not (= x33 x148)))))) (not (= x5 x102))) (not (= x59 x102))) (not (= x5 x33))) (not (= x59 x33))) (not (= x5 x59))))))) (and (and (not (= x89 x24)) (and (not (= x89 x84)) (and (not (= x24 x84)) (and (and (and (and (not (= x38 x89)) (and (not (= x24 x38)) (and (not (= x59 x38)) (not (= x84 x38))))) (not (= x84 x59))) (not (= x59 x24))) (not (= x59 x89)))))) (and (and (not (= x156 x11)) (and (and (and (not (= x5 x11)) (and (and (not (= x5 x7)) (and (and (and (not (= x27 x5)) (not (= x27 x7))) (not (= x27 x156))) (not (= x11 x27)))) (not (= x5 x156)))) (not (= x156 x7))) (not (= x11 x7)))) (and (and (and (not (= x97 x157)) (and (not (= x23 x97)) (and (not (= x157 x23)) (and (not (= x102 x97)) (and (not (= x157 x102)) (and (and (not (= x80 x97)) (and (not (= x157 x80)) (and (not (= x102 x80)) (not (= x80 x23))))) (not (= x102 x23)))))))) (and (not (= x54 x110)) (and (not (= x54 x26)) (and (and (not (= x54 x148)) (and (not (= x110 x148)) (and (not (= x148 x26)) (and (not (= x74 x54)) (and (and (not (= x74 x148)) (not (= x74 x26))) (not (= x74 x110))))))) (not (= x26 x110)))))) (and (and (and (and (not (= x33 x150)) (and (not (= x33 x124)) (and (not (= x107 x33)) (and (not (= x17 x150)) (and (and (not (= x107 x17)) (not (= x17 x33))) (not (= x124 x17))))))) (not (= x107 x124))) (not (= x150 x107))) (not (= x124 x150)))))))))
(assert (and (and (and (and (or (= x68 (x64 x105 (x64 x105 x68))) (or (= x100 (x64 x105 (x64 x105 x100))) (or (or (= x43 (x64 x105 (x64 x105 x43))) (= x105 (x64 x105 (x64 x105 x105)))) (= x19 (x64 x105 (x64 x105 x19)))))) (or (= (x64 x43 (x64 x43 x68)) x68) (or (= (x64 x43 (x64 x43 x100)) x100) (or (or (= (x64 x43 (x64 x43 x43)) x43) (= x105 (x64 x43 (x64 x43 x105)))) (= (x64 x43 (x64 x43 x19)) x19))))) (or (or (= x100 (x64 x19 (x64 x19 x100))) (or (or (= (x64 x19 (x64 x19 x43)) x43) (= (x64 x19 (x64 x19 x105)) x105)) (= (x64 x19 (x64 x19 x19)) x19))) (= x68 (x64 x19 (x64 x19 x68))))) (or (= x68 (x64 x100 (x64 x100 x68))) (or (= (x64 x100 (x64 x100 x100)) x100) (or (or (= x43 (x64 x100 (x64 x100 x43))) (= x105 (x64 x100 (x64 x100 x105)))) (= x19 (x64 x100 (x64 x100 x19))))))) (or (= x68 (x64 x68 (x64 x68 x68))) (or (= (x64 x68 (x64 x68 x100)) x100) (or (= (x64 x68 (x64 x68 x19)) x19) (or (= (x64 x68 (x64 x68 x105)) x105) (= x43 (x64 x68 (x64 x68 x43)))))))))
(assert (let ((x26 (x64 x19 x43)) (x84 (x64 x19 x68)) (x124 (x64 x100 x19)) (x5 (x64 x105 x100)) (x38 (x64 x43 x68)) (x17 (x64 x43 x19)) (x59 (x64 x105 x68)) (x150 (x64 x68 x19)) (x54 (x64 x68 x43)) (x107 (x64 x19 x19)) (x97 (x64 x68 x105)) (x110 (x64 x100 x43)) (x33 (x64 x105 x19)) (x27 (x64 x43 x100)) (x7 (x64 x19 x100)) (x80 (x64 x43 x105)) (x11 (x64 x68 x100)) (x24 (x64 x100 x68)) (x156 (x64 x100 x100)) (x102 (x64 x105 x105)) (x23 (x64 x19 x105)) (x89 (x64 x68 x68)) (x157 (x64 x100 x105)) (x148 (x64 x105 x43)) (x74 (x64 x43 x43))) (or (and (and (not (= x100 (x64 x11 x11))) (and (and (not (= x105 (x64 x97 x97))) (not (= (x64 x54 x54) x43))) (not (= (x64 x150 x150) x19)))) (not (= (x64 x89 x89) x68))) (or (and (not (= x68 (x64 x24 x24))) (and (and (and (not (= (x64 x157 x157) x105)) (not (= (x64 x110 x110) x43))) (not (= (x64 x124 x124) x19))) (not (= x100 (x64 x156 x156))))) (or (and (not (= x68 (x64 x84 x84))) (and (and (and (not (= x105 (x64 x23 x23))) (not (= (x64 x26 x26) x43))) (not (= (x64 x107 x107) x19))) (not (= x100 (x64 x7 x7))))) (or (and (and (and (and (not (= (x64 x102 x102) x105)) (not (= (x64 x148 x148) x43))) (not (= (x64 x33 x33) x19))) (not (= (x64 x5 x5) x100))) (not (= x68 (x64 x59 x59)))) (and (and (not (= x100 (x64 x27 x27))) (and (not (= x19 (x64 x17 x17))) (and (not (= (x64 x74 x74) x43)) (not (= (x64 x80 x80) x105))))) (not (= (x64 x38 x38) x68)))))))))
(assert (let ((x23 (x64 x19 x105)) (x124 (x64 x100 x19)) (x33 (x64 x105 x19)) (x157 (x64 x100 x105)) (x24 (x64 x100 x68)) (x38 (x64 x43 x68)) (x59 (x64 x105 x68)) (x107 (x64 x19 x19)) (x54 (x64 x68 x43)) (x26 (x64 x19 x43)) (x27 (x64 x43 x100)) (x7 (x64 x19 x100)) (x156 (x64 x100 x100)) (x97 (x64 x68 x105)) (x110 (x64 x100 x43)) (x11 (x64 x68 x100)) (x84 (x64 x19 x68)) (x74 (x64 x43 x43)) (x148 (x64 x105 x43)) (x5 (x64 x105 x100)) (x150 (x64 x68 x19)) (x17 (x64 x43 x19)) (x102 (x64 x105 x105)) (x80 (x64 x43 x105)) (x89 (x64 x68 x68))) (and (and (and (and (and (and (and (and (or (or (or (= x74 x19) (or (= x74 x105) (= x74 x43))) (= x100 x74)) (= x74 x68)) (or (= x80 x68) (or (= x100 x80) (or (= x80 x19) (or (= x80 x43) (= x105 x80)))))) (or (or (or (= x17 x19) (or (= x17 x105) (= x43 x17))) (= x100 x17)) (= x68 x17))) (or (or (or (= x19 x27) (or (= x27 x43) (= x27 x105))) (= x27 x100)) (= x27 x68))) (or (= x38 x68) (or (or (= x19 x38) (or (= x105 x38) (= x43 x38))) (= x38 x100)))) (and (or (= x59 x68) (or (= x100 x59) (or (or (= x59 x105) (= x59 x43)) (= x19 x59)))) (and (and (or (or (= x100 x33) (or (= x19 x33) (or (= x33 x105) (= x43 x33)))) (= x68 x33)) (and (or (= x68 x102) (or (= x100 x102) (or (= x19 x102) (or (= x102 x43) (= x102 x105))))) (or (= x148 x68) (or (= x148 x100) (or (= x148 x19) (or (= x148 x43) (= x105 x148))))))) (or (or (= x100 x5) (or (= x19 x5) (or (= x105 x5) (= x43 x5)))) (= x5 x68))))) (and (or (or (or (= x19 x84) (or (= x43 x84) (= x84 x105))) (= x84 x100)) (= x68 x84)) (and (or (= x7 x68) (or (= x100 x7) (or (= x7 x19) (or (= x105 x7) (= x43 x7))))) (and (or (or (= x100 x107) (or (or (= x107 x105) (= x43 x107)) (= x107 x19))) (= x107 x68)) (and (or (or (or (or (= x23 x105) (= x23 x43)) (= x19 x23)) (= x23 x100)) (= x68 x23)) (or (= x68 x26) (or (or (= x26 x19) (or (= x105 x26) (= x26 x43))) (= x100 x26)))))))) (and (and (and (and (or (or (= x100 x157) (or (= x19 x157) (or (= x157 x43) (= x105 x157)))) (= x157 x68)) (or (or (= x100 x110) (or (= x110 x19) (or (= x110 x43) (= x110 x105)))) (= x68 x110))) (or (= x124 x68) (or (= x124 x100) (or (or (= x124 x105) (= x43 x124)) (= x19 x124))))) (or (= x156 x68) (or (or (or (= x156 x105) (= x156 x43)) (= x19 x156)) (= x156 x100)))) (or (= x24 x68) (or (or (= x19 x24) (or (= x24 x43) (= x105 x24))) (= x100 x24))))) (and (and (and (or (or (or (= x19 x150) (or (= x105 x150) (= x43 x150))) (= x100 x150)) (= x68 x150)) (and (or (or (= x100 x54) (or (= x54 x19) (or (= x54 x43) (= x54 x105)))) (= x68 x54)) (or (or (= x100 x97) (or (or (= x97 x43) (= x105 x97)) (= x19 x97))) (= x68 x97)))) (or (= x11 x68) (or (= x100 x11) (or (= x11 x19) (or (= x105 x11) (= x43 x11)))))) (or (= x89 x68) (or (or (or (= x105 x89) (= x89 x43)) (= x89 x19)) (= x100 x89)))))))
(assert (not (and (= x43 (x64 x68 x68)) (and (= x105 (x64 x68 x100)) (and (and (= x100 (x64 x68 x105)) (and (= x68 (x64 x68 x43)) (and (and (= x43 (x64 x100 x100)) (and (= x100 (x64 x100 x19)) (and (= x68 (x64 x100 x105)) (and (= x19 (x64 x100 x43)) (and (= x100 (x64 x19 x68)) (and (and (= (x64 x19 x19) x105) (and (= x19 (x64 x19 x105)) (and (= x43 (x64 x19 x43)) (and (and (= x19 (x64 x105 x100)) (and (= x43 (x64 x105 x19)) (and (and (and (= (x64 x43 x68) x19) (and (and (= (x64 x43 x19) x68) (and (= (x64 x43 x43) x105) (= (x64 x43 x105) x43))) (= (x64 x43 x100) x100))) (= x100 (x64 x105 x43))) (= (x64 x105 x105) x105)))) (= x68 (x64 x105 x68)))))) (= (x64 x19 x100) x68))))))) (= (x64 x100 x68) x105)))) (= (x64 x68 x19) x19))))))
(assert (and (not (= x68 x100)) (and (and (and (and (not (= x105 x100)) (and (and (not (= x43 x68)) (and (and (not (= x19 x43)) (not (= x43 x105))) (not (= x100 x43)))) (not (= x105 x19)))) (not (= x105 x68))) (not (= x100 x19))) (not (= x68 x19)))))
(assert (and (= x68 (x64 x19 x100)) (and (= x100 (x64 x105 x43)) (and (= x19 (x64 x100 x43)) (= x105 (x64 x43 x43))))))
(assert (or (= (x64 x68 x68) x68) (or (= (x64 x100 x100) x100) (or (= (x64 x19 x19) x19) (or (= x105 (x64 x105 x105)) (= (x64 x43 x43) x43))))))
(assert (or (and (and (and (not (= (x64 x19 (x64 x68 x19)) x19)) (and (not (= x105 (x64 x105 (x64 x68 x105)))) (not (= (x64 x43 (x64 x68 x43)) x43)))) (not (= (x64 x100 (x64 x68 x100)) x100))) (not (= x68 (x64 x68 (x64 x68 x68))))) (or (and (and (not (= (x64 x100 (x64 x100 x100)) x100)) (and (and (not (= x43 (x64 x43 (x64 x100 x43)))) (not (= (x64 x105 (x64 x100 x105)) x105))) (not (= (x64 x19 (x64 x100 x19)) x19)))) (not (= (x64 x68 (x64 x100 x68)) x68))) (or (or (and (not (= (x64 x68 (x64 x43 x68)) x68)) (and (not (= (x64 x100 (x64 x43 x100)) x100)) (and (and (not (= (x64 x105 (x64 x43 x105)) x105)) (not (= x43 (x64 x43 (x64 x43 x43))))) (not (= x19 (x64 x19 (x64 x43 x19))))))) (and (and (and (and (not (= (x64 x105 (x64 x105 x105)) x105)) (not (= x43 (x64 x43 (x64 x105 x43))))) (not (= (x64 x19 (x64 x105 x19)) x19))) (not (= x100 (x64 x100 (x64 x105 x100))))) (not (= x68 (x64 x68 (x64 x105 x68)))))) (and (and (not (= (x64 x100 (x64 x19 x100)) x100)) (and (not (= (x64 x19 (x64 x19 x19)) x19)) (and (not (= x43 (x64 x43 (x64 x19 x43)))) (not (= (x64 x105 (x64 x19 x105)) x105))))) (not (= x68 (x64 x68 (x64 x19 x68)))))))))
(assert (let ((x134 (x64 x105 x100)) (x109 (x64 x100 x43)) (x131 (x64 x100 x105)) (x71 (x64 x100 x100)) (x41 (x64 x105 x68)) (x149 (x64 x68 x43)) (x35 (x64 x105 x105)) (x82 (x64 x68 x105)) (x58 (x64 x43 x100)) (x4 (x64 x43 x43)) (x55 (x64 x19 x19)) (x153 (x64 x68 x100)) (x65 (x64 x68 x19)) (x45 (x64 x19 x105)) (x142 (x64 x68 x68)) (x93 (x64 x100 x19)) (x39 (x64 x43 x68)) (x120 (x64 x43 x105)) (x40 (x64 x100 x68)) (x88 (x64 x43 x19)) (x114 (x64 x19 x43)) (x9 (x64 x19 x100)) (x49 (x64 x105 x43)) (x50 (x64 x105 x19)) (x73 (x64 x19 x68))) (let ((x139 (= x68 x41)) (x44 (= x100 x149)) (x147 (= x68 x114)) (x79 (= x40 x68)) (x135 (= x50 x100)) (x29 (= x100 x73)) (x83 (= x100 x109)) (x57 (= x134 x68)) (x151 (= x49 x68)) (x152 (= x100 x4)) (x146 (= x9 x105)) (x84 (= x43 x9)) (x32 (= x109 x68)) (x97 (= x43 x73)) (x51 (= x19 x49)) (x13 (= x68 x45)) (x94 (= x19 x88)) (x113 (= x100 x40)) (x155 (= x68 x55)) (x38 (= x114 x43)) (x18 (= x105 x45)) (x99 (= x149 x19)) (x21 (= x50 x105)) (x115 (= x19 x131)) (x158 (= x105 x40)) (x5 (= x43 x55)) (x85 (= x120 x19)) (x89 (= x142 x43)) (x148 (= x43 x88)) (x69 (= x100 x131)) (x143 (= x93 x105)) (x145 (= x109 x105)) (x70 (= x50 x19)) (x47 (= x93 x68)) (x17 (= x43 x120)) (x12 (= x68 x35)) (x126 (= x109 x19)) (x25 (= x19 x40)) (x2 (= x153 x19)) (x103 (= x105 x39)) (x119 (= x114 x105)) (x140 (= x68 x58)) (x7 (= x93 x43)) (x92 (= x100 x41)) (x80 (= x49 x43)) (x133 (= x82 x100)) (x11 (= x43 x40)) (x76 (= x93 x100)) (x91 (= x131 x68)) (x101 (= x19 x39)) (x8 (= x73 x105)) (x60 (= x71 x19)) (x102 (= x45 x43)) (x24 (= x43 x41)) (x137 (= x82 x19)) (x156 (= x43 x82)) (x31 (= x100 x88)) (x33 (= x50 x43)) (x107 (= x43 x134)) (x130 (= x68 x149)) (x56 (= x19 x65)) (x81 (= x9 x100)) (x30 (= x142 x19)) (x48 (= x68 x9)) (x34 (= x19 x4)) (x28 (= x105 x134)) (x150 (= x153 x43)) (x144 (= x19 x58)) (x136 (= x120 x105)) (x26 (= x58 x43)) (x46 (= x45 x100)) (x53 (= x19 x73)) (x98 (= x114 x100)) (x157 (= x43 x149)) (x62 (= x65 x105)) (x75 (= x58 x100)) (x67 (= x105 x49)) (x42 (= x100 x134)) (x90 (= x100 x153)) (x14 (= x68 x88)) (x125 (= x120 x68)) (x86 (= x100 x120)) (x154 (= x105 x71)) (x20 (= x100 x65)) (x138 (= x19 x55)) (x111 (= x131 x105)) (x23 (= x43 x131)) (x15 (= x68 x142)) (x118 (= x68 x73)) (x66 (= x19 x45)) (x95 (= x35 x100)) (x124 (= x43 x39)) (x128 (= x68 x50)) (x54 (= x65 x43)) (x63 (= x105 x58)) (x132 (= x68 x82)) (x52 (= x105 x55)) (x110 (= x71 x43)) (x123 (= x105 x82)) (x74 (= x4 x43)) (x37 (= x105 x4)) (x106 (= x39 x100)) (x121 (= x41 x19)) (x159 (= x100 x71)) (x3 (= x100 x55)) (x61 (= x134 x19)) (x27 (= x35 x43)) (x129 (= x35 x19)) (x72 (= x19 x9)) (x10 (= x114 x19)) (x117 (= x105 x41)) (x96 (= x100 x49)) (x87 (= x105 x149)) (x122 (= x39 x68)) (x16 (= x100 x142)) (x1 (= x153 x68)) (x78 (= x35 x105)) (x112 (= x142 x105)) (x36 (= x105 x153)) (x22 (= x68 x71)) (x141 (= x4 x68)) (x108 (= x68 x65)) (x127 (= x93 x19)) (x59 (= x109 x43)) (x116 (= x105 x88))) (or (and (and (or x15 (not x15)) (and (and (and (or (not x130) x122) (or (not x132) x139)) (or (not x108) x118)) (or x79 (not x1)))) (and (and (or x1 (not x79)) (and (or x22 (not x22)) (and (or (not x47) x48) (and (or x140 (not x32)) (or x57 (not x91)))))) (and (and (and (and (or x32 (not x140)) (and (or x147 (not x14)) (and (or (not x125) x151) (or (not x141) x141)))) (or (not x122) x130)) (and (or x132 (not x139)) (and (or (not x57) x91) (and (and (or (not x12) x12) (or (not x151) x125)) (or x13 (not x128)))))) (and (or x108 (not x118)) (and (and (or x155 (not x155)) (and (or (not x13) x128) (or x14 (not x147)))) (or (not x48) x47)))))) (or (and (and (and (and (or x29 (not x20)) (and (or (not x44) x106) (or (not x133) x92))) (or (not x90) x113)) (or x16 (not x16))) (and (and (and (and (and (and (and (or (not x152) x152) (or x96 (not x86))) (or (not x31) x98)) (or x83 (not x75))) (or x44 (not x106))) (and (and (and (and (or (not x96) x86) (or (not x95) x95)) (or (not x135) x46)) (or x69 (not x42))) (or x133 (not x92)))) (and (or x20 (not x29)) (and (and (or (not x3) x3) (and (or x31 (not x98)) (or x135 (not x46)))) (or x76 (not x81))))) (and (and (or (not x159) x159) (and (and (or x75 (not x83)) (or x42 (not x69))) (or x81 (not x76)))) (or (not x113) x90)))) (or (and (and (or x30 (not x30)) (and (or (not x2) x25) (and (or (not x56) x53) (and (or (not x99) x101) (or x121 (not x137)))))) (and (and (and (or (not x53) x56) (and (and (or x138 (not x138)) (and (or (not x66) x70) (or (not x10) x94))) (or (not x72) x127))) (and (and (and (or x115 (not x61)) (and (or (not x70) x66) (and (or x85 (not x51)) (or (not x129) x129)))) (or x137 (not x121))) (and (or (not x101) x99) (and (or (not x144) x126) (and (and (or x34 (not x34)) (or x51 (not x85))) (or x10 (not x94))))))) (and (or x2 (not x25)) (and (and (and (or x61 (not x115)) (or x144 (not x126))) (or (not x127) x72)) (or x60 (not x60)))))) (or (and (and (or (not x89) x89) (and (and (or (not x54) x97) (and (or x24 (not x156)) (or x124 (not x157)))) (or x11 (not x150)))) (and (and (and (and (or (not x124) x157) (and (or x59 (not x26)) (and (or (not x148) x38) (and (or x74 (not x74)) (or (not x17) x80))))) (and (and (and (and (or x27 (not x27)) (or (not x80) x17)) (or x102 (not x33))) (or (not x107) x23)) (or x156 (not x24)))) (and (or x54 (not x97)) (and (and (or (not x5) x5) (and (or x33 (not x102)) (or x148 (not x38)))) (or x7 (not x84))))) (and (and (and (and (or (not x23) x107) (or x26 (not x59))) (or x84 (not x7))) (or x110 (not x110))) (or x150 (not x11))))) (and (and (and (and (and (and (and (or x21 (not x18)) (or x116 (not x119))) (or (not x52) x52)) (or x143 (not x146))) (or (not x8) x62)) (and (and (and (and (or x18 (not x21)) (and (or x136 (not x67)) (or (not x78) x78))) (or x111 (not x28))) (or x123 (not x117))) (and (and (or (not x63) x145) (and (and (or (not x37) x37) (or (not x136) x67)) (or (not x116) x119))) (or x87 (not x103))))) (and (and (and (and (or x63 (not x145)) (or x28 (not x111))) (or x146 (not x143))) (or x154 (not x154))) (or (not x158) x36))) (and (and (and (and (or x117 (not x123)) (or x103 (not x87))) (or (not x62) x8)) (or x158 (not x36))) (or x112 (not x112)))))))))))
(assert (let ((x35 (x64 x105 x105)) (x131 (x64 x100 x105)) (x93 (x64 x100 x19)) (x120 (x64 x43 x105)) (x4 (x64 x43 x43)) (x153 (x64 x68 x100)) (x114 (x64 x19 x43)) (x134 (x64 x105 x100)) (x9 (x64 x19 x100)) (x149 (x64 x68 x43)) (x73 (x64 x19 x68)) (x41 (x64 x105 x68)) (x65 (x64 x68 x19)) (x55 (x64 x19 x19)) (x142 (x64 x68 x68)) (x40 (x64 x100 x68)) (x88 (x64 x43 x19)) (x50 (x64 x105 x19)) (x71 (x64 x100 x100)) (x45 (x64 x19 x105)) (x58 (x64 x43 x100)) (x49 (x64 x105 x43)) (x82 (x64 x68 x105)) (x39 (x64 x43 x68)) (x109 (x64 x100 x43))) (let ((x38 (not (= x43 x114))) (x107 (not (= x43 x134))) (x130 (not (= x149 x68))) (x21 (not (= x105 x50))) (x67 (not (= x49 x105))) (x56 (not (= x19 x65))) (x80 (not (= x49 x43))) (x150 (not (= x43 x153))) (x7 (not (= x93 x43))) (x75 (not (= x58 x100))) (x78 (not (= x35 x105))) (x30 (not (= x19 x142))) (x20 (not (= x65 x100))) (x103 (not (= x105 x39))) (x54 (not (= x65 x43))) (x146 (not (= x9 x105))) (x145 (not (= x105 x109))) (x97 (not (= x73 x43))) (x70 (not (= x50 x19))) (x37 (not (= x105 x4))) (x101 (not (= x19 x39))) (x127 (not (= x19 x93))) (x31 (not (= x88 x100))) (x95 (not (= x35 x100))) (x1 (not (= x153 x68))) (x23 (not (= x131 x43))) (x154 (not (= x105 x71))) (x10 (not (= x114 x19))) (x138 (not (= x55 x19))) (x76 (not (= x93 x100))) (x141 (not (= x4 x68))) (x33 (not (= x50 x43))) (x74 (not (= x4 x43))) (x157 (not (= x43 x149))) (x115 (not (= x131 x19))) (x121 (not (= x19 x41))) (x53 (not (= x19 x73))) (x143 (not (= x105 x93))) (x34 (not (= x4 x19))) (x12 (not (= x35 x68))) (x51 (not (= x49 x19))) (x152 (not (= x4 x100))) (x26 (not (= x43 x58))) (x144 (not (= x58 x19))) (x133 (not (= x100 x82))) (x32 (not (= x109 x68))) (x5 (not (= x55 x43))) (x92 (not (= x100 x41))) (x123 (not (= x82 x105))) (x112 (not (= x142 x105))) (x85 (not (= x19 x120))) (x113 (not (= x40 x100))) (x122 (not (= x39 x68))) (x135 (not (= x50 x100))) (x89 (not (= x43 x142))) (x25 (not (= x40 x19))) (x14 (not (= x88 x68))) (x60 (not (= x19 x71))) (x111 (not (= x131 x105))) (x66 (not (= x19 x45))) (x87 (not (= x105 x149))) (x28 (not (= x105 x134))) (x46 (not (= x100 x45))) (x151 (not (= x68 x49))) (x99 (not (= x19 x149))) (x18 (not (= x45 x105))) (x156 (not (= x43 x82))) (x140 (not (= x58 x68))) (x110 (not (= x43 x71))) (x129 (not (= x19 x35))) (x139 (not (= x68 x41))) (x3 (not (= x100 x55))) (x128 (not (= x68 x50))) (x13 (not (= x45 x68))) (x91 (not (= x131 x68))) (x15 (not (= x68 x142))) (x125 (not (= x68 x120))) (x16 (not (= x100 x142))) (x148 (not (= x88 x43))) (x90 (not (= x100 x153))) (x83 (not (= x109 x100))) (x81 (not (= x100 x9))) (x132 (not (= x82 x68))) (x2 (not (= x153 x19))) (x147 (not (= x68 x114))) (x44 (not (= x149 x100))) (x8 (not (= x105 x73))) (x42 (not (= x134 x100))) (x118 (not (= x73 x68))) (x52 (not (= x105 x55))) (x86 (not (= x100 x120))) (x117 (not (= x105 x41))) (x124 (not (= x43 x39))) (x94 (not (= x88 x19))) (x137 (not (= x19 x82))) (x116 (not (= x88 x105))) (x63 (not (= x58 x105))) (x159 (not (= x71 x100))) (x108 (not (= x68 x65))) (x84 (not (= x9 x43))) (x36 (not (= x153 x105))) (x72 (not (= x19 x9))) (x119 (not (= x114 x105))) (x126 (not (= x19 x109))) (x47 (not (= x93 x68))) (x106 (not (= x39 x100))) (x59 (not (= x43 x109))) (x11 (not (= x43 x40))) (x69 (not (= x100 x131))) (x155 (not (= x68 x55))) (x62 (not (= x105 x65))) (x57 (not (= x134 x68))) (x24 (not (= x43 x41))) (x136 (not (= x105 x120))) (x61 (not (= x134 x19))) (x17 (not (= x43 x120))) (x29 (not (= x73 x100))) (x158 (not (= x105 x40))) (x102 (not (= x43 x45))) (x27 (not (= x43 x35))) (x22 (not (= x68 x71))) (x79 (not (= x40 x68))) (x98 (not (= x100 x114))) (x48 (not (= x9 x68))) (x96 (not (= x100 x49)))) (or (and (and (and (or x1 x79) (and (or x108 x118) (and (or x130 x122) (or x139 x132)))) (or x15 x15)) (and (and (and (and (or x48 x47) (and (and (or x147 x14) (or x13 x128)) (or x155 x155))) (or x108 x118)) (and (and (or x130 x122) (and (and (and (or x141 x141) (or x125 x151)) (or x147 x14)) (or x32 x140))) (and (or x139 x132) (and (or x57 x91) (and (and (or x151 x125) (or x12 x12)) (or x128 x13)))))) (and (or x1 x79) (and (or x22 x22) (and (and (or x57 x91) (or x140 x32)) (or x47 x48)))))) (or (or (or (and (and (and (or x11 x150) (and (and (or x7 x84) (and (or x23 x107) (or x26 x59))) (or x110 x110))) (and (and (and (or x124 x157) (and (and (and (or x74 x74) (or x80 x17)) (or x38 x148)) (or x59 x26))) (and (and (and (or x102 x33) (and (or x27 x27) (or x17 x80))) (or x107 x23)) (or x156 x24))) (and (and (or x7 x84) (and (and (or x102 x33) (or x38 x148)) (or x5 x5))) (or x97 x54)))) (and (or x89 x89) (and (and (or x97 x54) (and (or x157 x124) (or x156 x24))) (or x11 x150)))) (and (and (and (and (and (and (or x145 x63) (and (and (or x37 x37) (or x67 x136)) (or x116 x119))) (or x103 x87)) (and (and (and (and (or x78 x78) (or x136 x67)) (or x18 x21)) (or x28 x111)) (or x123 x117))) (and (or x62 x8) (and (and (or x52 x52) (and (or x119 x116) (or x18 x21))) (or x143 x146)))) (and (or x158 x36) (and (and (or x143 x146) (and (or x28 x111) (or x145 x63))) (or x154 x154)))) (and (or x112 x112) (and (and (or x62 x8) (and (or x123 x117) (or x87 x103))) (or x158 x36))))) (and (and (and (or x2 x25) (and (or x53 x56) (and (or x101 x99) (or x137 x121)))) (or x30 x30)) (and (and (and (or x53 x56) (and (and (and (or x70 x66) (or x10 x94)) (or x138 x138)) (or x72 x127))) (and (and (or x99 x101) (and (and (or x94 x10) (and (or x51 x85) (or x34 x34))) (or x144 x126))) (and (or x121 x137) (and (or x61 x115) (and (and (or x129 x129) (or x51 x85)) (or x70 x66)))))) (and (or x2 x25) (and (and (and (or x144 x126) (or x61 x115)) (or x127 x72)) (or x60 x60)))))) (and (and (and (or x90 x113) (and (or x159 x159) (and (or x81 x76) (and (or x42 x69) (or x75 x83))))) (and (and (and (and (or x69 x42) (and (and (or x96 x86) (or x95 x95)) (or x135 x46))) (or x92 x133)) (and (and (or x83 x75) (and (and (or x86 x96) (or x152 x152)) (or x98 x31))) (or x44 x106))) (and (or x20 x29) (and (or x76 x81) (and (or x3 x3) (and (or x31 x98) (or x46 x135))))))) (and (and (and (or x29 x20) (and (or x92 x133) (or x106 x44))) (or x113 x90)) (or x16 x16))))))))
(assert (or (and (not (= x68 (x64 x68 x68))) (and (not (= (x64 x68 x100) x100)) (and (and (not (= (x64 x68 x105) x105)) (not (= (x64 x68 x43) x43))) (not (= x19 (x64 x68 x19)))))) (or (and (not (= x68 (x64 x100 x68))) (and (and (not (= (x64 x100 x19) x19)) (and (not (= (x64 x100 x105) x105)) (not (= (x64 x100 x43) x43)))) (not (= (x64 x100 x100) x100)))) (or (and (not (= (x64 x19 x68) x68)) (and (not (= (x64 x19 x100) x100)) (and (not (= (x64 x19 x19) x19)) (and (not (= (x64 x19 x105) x105)) (not (= (x64 x19 x43) x43)))))) (or (and (not (= (x64 x105 x68) x68)) (and (not (= x100 (x64 x105 x100))) (and (and (not (= x105 (x64 x105 x105))) (not (= x43 (x64 x105 x43)))) (not (= x19 (x64 x105 x19)))))) (and (not (= x68 (x64 x43 x68))) (and (not (= (x64 x43 x100) x100)) (and (and (not (= (x64 x43 x43) x43)) (not (= x105 (x64 x43 x105)))) (not (= (x64 x43 x19) x19))))))))))
(assert (and (or (or (= (x64 x100 (x64 x68 x100)) x68) (or (or (= (x64 x43 (x64 x68 x43)) x68) (= x68 (x64 x105 (x64 x68 x105)))) (= x68 (x64 x19 (x64 x68 x19))))) (= (x64 x68 (x64 x68 x68)) x68)) (and (and (and (or (or (= x105 (x64 x100 (x64 x105 x100))) (or (or (= x105 (x64 x105 (x64 x105 x105))) (= x105 (x64 x43 (x64 x105 x43)))) (= x105 (x64 x19 (x64 x105 x19))))) (= x105 (x64 x68 (x64 x105 x68)))) (or (or (= (x64 x100 (x64 x43 x100)) x43) (or (or (= (x64 x105 (x64 x43 x105)) x43) (= (x64 x43 (x64 x43 x43)) x43)) (= x43 (x64 x19 (x64 x43 x19))))) (= (x64 x68 (x64 x43 x68)) x43))) (or (or (= (x64 x100 (x64 x19 x100)) x19) (or (= x19 (x64 x19 (x64 x19 x19))) (or (= x19 (x64 x105 (x64 x19 x105))) (= (x64 x43 (x64 x19 x43)) x19)))) (= x19 (x64 x68 (x64 x19 x68))))) (or (= x100 (x64 x68 (x64 x100 x68))) (or (= x100 (x64 x100 (x64 x100 x100))) (or (= (x64 x19 (x64 x100 x19)) x100) (or (= (x64 x43 (x64 x100 x43)) x100) (= (x64 x105 (x64 x100 x105)) x100))))))))
(assert (and (or (or (or (or (= (x64 (x64 x68 x105) x68) x105) (= x43 (x64 (x64 x68 x43) x68))) (= (x64 (x64 x68 x19) x68) x19)) (= x100 (x64 (x64 x68 x100) x68))) (= (x64 (x64 x68 x68) x68) x68)) (and (or (= (x64 (x64 x100 x68) x100) x68) (or (or (= (x64 (x64 x100 x19) x100) x19) (or (= x105 (x64 (x64 x100 x105) x100)) (= x43 (x64 (x64 x100 x43) x100)))) (= x100 (x64 (x64 x100 x100) x100)))) (and (and (or (= x68 (x64 (x64 x105 x68) x105)) (or (= x100 (x64 (x64 x105 x100) x105)) (or (= x19 (x64 (x64 x105 x19) x105)) (or (= x43 (x64 (x64 x105 x43) x105)) (= x105 (x64 (x64 x105 x105) x105)))))) (or (or (= (x64 (x64 x43 x100) x43) x100) (or (= x19 (x64 (x64 x43 x19) x43)) (or (= x105 (x64 (x64 x43 x105) x43)) (= (x64 (x64 x43 x43) x43) x43)))) (= (x64 (x64 x43 x68) x43) x68))) (or (or (or (= x19 (x64 (x64 x19 x19) x19)) (or (= (x64 (x64 x19 x105) x19) x105) (= (x64 (x64 x19 x43) x19) x43))) (= (x64 (x64 x19 x100) x19) x100)) (= (x64 (x64 x19 x68) x19) x68))))))
(assert (let ((x27 (x64 x100 x100)) (x38 (x64 x68 x68)) (x17 (x64 x19 x19)) (x80 (x64 x105 x105)) (x74 (x64 x43 x43))) (or (and (not (= x68 x38)) (and (not (= x27 x68)) (and (and (not (= x74 x68)) (not (= x68 x80))) (not (= x68 x17))))) (or (or (and (not (= x19 x38)) (and (and (and (not (= x19 x74)) (not (= x80 x19))) (not (= x19 x17))) (not (= x19 x27)))) (or (and (not (= x38 x105)) (and (and (not (= x17 x105)) (and (not (= x80 x105)) (not (= x105 x74)))) (not (= x27 x105)))) (and (and (and (not (= x43 x17)) (and (not (= x43 x74)) (not (= x80 x43)))) (not (= x27 x43))) (not (= x43 x38))))) (and (not (= x100 x38)) (and (not (= x27 x100)) (and (not (= x100 x17)) (and (not (= x74 x100)) (not (= x100 x80))))))))))
(assert (let ((x97 (x64 x105 x68)) (x37 (x64 x68 x105)) (x70 (x64 x68 x100)) (x106 (x64 x68 x68)) (x38 (x64 x43 x100)) (x148 (x64 x43 x68)) (x41 (x64 x19 x19)) (x5 (x64 x19 x43)) (x17 (x64 x43 x105)) (x24 (x64 x105 x19)) (x80 (x64 x43 x43)) (x54 (x64 x105 x100)) (x27 (x64 x43 x19)) (x59 (x64 x100 x43)) (x51 (x64 x100 x100)) (x85 (x64 x100 x68)) (x55 (x64 x100 x19)) (x52 (x64 x68 x19)) (x119 (x64 x19 x68)) (x33 (x64 x105 x43)) (x26 (x64 x68 x43)) (x4 (x64 x100 x105)) (x156 (x64 x105 x105)) (x82 (x64 x19 x100)) (x89 (x64 x19 x105))) (let ((x109 (= x100 x156)) (x86 (= x68 x82)) (x146 (= x100 x41)) (x149 (= x68 x17)) (x110 (= x17 x43)) (x130 (= x26 x68)) (x12 (= x97 x19)) (x50 (= x43 x24)) (x9 (= x5 x19)) (x123 (= x4 x43)) (x57 (= x97 x100)) (x90 (= x105 x106)) (x69 (= x43 x85)) (x147 (= x119 x19)) (x142 (= x59 x105)) (x143 (= x100 x24)) (x56 (= x100 x82)) (x32 (= x100 x52)) (x95 (= x68 x51)) (x14 (= x19 x85)) (x66 (= x105 x51)) (x21 (= x105 x41)) (x96 (= x68 x54)) (x47 (= x100 x119)) (x18 (= x24 x105)) (x94 (= x82 x105)) (x44 (= x105 x70)) (x92 (= x105 x97)) (x61 (= x54 x19)) (x11 (= x156 x105)) (x62 (= x38 x43)) (x75 (= x119 x43)) (x88 (= x19 x156)) (x121 (= x54 x100)) (x99 (= x4 x100)) (x91 (= x148 x100)) (x154 (= x89 x68)) (x117 (= x43 x55)) (x78 (= x27 x43)) (x159 (= x105 x52)) (x36 (= x82 x43)) (x29 (= x85 x105)) (x74 (= x43 x80)) (x81 (= x37 x105)) (x79 (= x85 x68)) (x133 (= x148 x105)) (x42 (= x43 x106)) (x136 (= x43 x5)) (x111 (= x100 x89)) (x122 (= x37 x68)) (x153 (= x24 x68)) (x20 (= x105 x119)) (x73 (= x19 x27)) (x87 (= x41 x68)) (x144 (= x19 x55)) (x72 (= x51 x19)) (x53 (= x100 x51)) (x84 (= x33 x43)) (x137 (= x100 x38)) (x127 (= x82 x19)) (x157 (= x156 x43)) (x46 (= x52 x43)) (x65 (= x24 x19)) (x76 (= x26 x105)) (x35 (= x89 x43)) (x49 (= x17 x19)) (x158 (= x43 x51)) (x126 (= x4 x19)) (x23 (= x80 x19)) (x118 (= x97 x68)) (x40 (= x27 x68)) (x22 (= x100 x106)) (x107 (= x100 x80)) (x115 (= x38 x19)) (x98 (= x43 x26)) (x60 (= x59 x100)) (x16 (= x19 x37)) (x135 (= x70 x43)) (x150 (= x105 x17)) (x8 (= x43 x54)) (x112 (= x4 x105)) (x101 (= x100 x55)) (x120 (= x19 x33)) (x138 (= x19 x59)) (x155 (= x37 x100)) (x30 (= x55 x68)) (x7 (= x68 x80)) (x31 (= x43 x37)) (x2 (= x68 x59)) (x151 (= x70 x19)) (x1 (= x68 x119)) (x128 (= x100 x26)) (x131 (= x105 x89)) (x125 (= x19 x148)) (x134 (= x5 x105)) (x45 (= x41 x43)) (x108 (= x148 x68)) (x116 (= x27 x105)) (x63 (= x5 x100)) (x102 (= x105 x80)) (x83 (= x97 x43)) (x28 (= x27 x100)) (x39 (= x68 x33)) (x3 (= x43 x148)) (x145 (= x41 x19)) (x25 (= x68 x4)) (x34 (= x105 x55)) (x129 (= x38 x105)) (x140 (= x70 x100)) (x15 (= x68 x106)) (x139 (= x68 x70)) (x13 (= x106 x19)) (x114 (= x100 x33)) (x113 (= x19 x26)) (x141 (= x19 x52)) (x48 (= x100 x85)) (x124 (= x105 x33)) (x93 (= x89 x19)) (x67 (= x156 x68)) (x132 (= x68 x52)) (x71 (= x5 x68)) (x103 (= x43 x59)) (x152 (= x38 x68)) (x10 (= x54 x105)) (x58 (= x17 x100))) (and (and (and (and (and (and (and (or (or (or x63 (or x114 x107)) x60) x128) (or (or (or x28 (or x58 x107)) x137) x91)) (and (and (or (or x115 (or (or x49 x23) x73)) x125) (or (or x138 (or (or x23 x120) x9)) x113)) (and (and (or x133 (or x129 (or (or x102 x150) x116))) (or (or (or (or x102 x124) x134) x142) x76)) (and (or (or x103 (or x136 (or x84 x74))) x98) (or (or x62 (or (or x110 x74) x78)) x3))))) (and (or (or (or x40 (or x7 x149)) x152) x108) (or (or x2 (or (or x39 x7) x71)) x130))) (and (and (or (or x96 (or x153 (or x67 x39))) x118) (or (or (or (or x149 x67) x154) x25) x122)) (and (and (and (or (or x126 (or (or x88 x49) x93)) x16) (or (or (or (or x88 x120) x65) x61) x12)) (and (and (or (or (or x35 (or x110 x157)) x123) x31) (or (or (or x50 (or x84 x157)) x8) x83)) (and (or x92 (or x10 (or x18 (or x11 x124)))) (or x81 (or (or x131 (or x11 x150)) x112))))) (and (or x57 (or x121 (or (or x114 x109) x143))) (or x155 (or (or (or x109 x58) x111) x99)))))) (and (and (or (or (or x87 (or x153 x40)) x30) x132) (or (or x86 (or (or x154 x71) x87)) x1)) (and (and (and (and (or (or x34 (or (or x116 x18) x21)) x159) (or (or (or x21 (or x134 x131)) x94) x20)) (and (or x46 (or (or (or x78 x50) x45) x117)) (or (or (or (or x35 x136) x45) x36) x75))) (and (or x147 (or (or (or x93 x9) x145) x127)) (or (or x144 (or (or x73 x65) x145)) x141))) (and (or (or (or (or x28 x143) x146) x101) x32) (or (or (or x146 (or x63 x111)) x56) x47))))) (and (and (or (or (or x30 (or x25 x2)) x95) x79) (or x139 (or x95 (or (or x152 x96) x86)))) (and (and (and (or x14 (or x72 (or x144 (or x126 x138)))) (or (or (or x127 (or x115 x61)) x72) x151)) (and (and (or x29 (or x66 (or (or x142 x112) x34))) (or (or x66 (or x94 (or x10 x129))) x44)) (and (or x69 (or x158 (or x117 (or x103 x123)))) (or x135 (or (or x36 (or x62 x8)) x158))))) (and (or (or (or x101 (or x99 x60)) x53) x48) (or x140 (or x53 (or x56 (or x137 x121)))))))) (and (and (or x15 (or (or (or x118 x108) x1) x79)) (or x15 (or x139 (or (or x130 x122) x132)))) (and (and (or (or (or (or x128 x155) x32) x140) x22) (or x22 (or x48 (or (or x91 x57) x47)))) (and (and (or x13 (or (or (or x12 x125) x147) x14)) (or (or (or (or x16 x113) x141) x151) x13)) (and (and (or x42 (or (or (or x3 x83) x75) x69)) (or x42 (or (or x46 (or x31 x98)) x135))) (and (or (or (or (or x92 x133) x20) x29) x90) (or (or x44 (or x159 (or x76 x81))) x90))))))))))
(assert (or (and (and (and (not (= (x64 (x64 x19 x68) x68) x19)) (and (not (= x43 (x64 (x64 x43 x68) x68))) (not (= x105 (x64 (x64 x105 x68) x68))))) (not (= (x64 (x64 x100 x68) x68) x100))) (not (= (x64 (x64 x68 x68) x68) x68))) (or (or (or (and (not (= x68 (x64 (x64 x68 x43) x43))) (and (and (and (not (= x43 (x64 (x64 x43 x43) x43))) (not (= (x64 (x64 x105 x43) x43) x105))) (not (= (x64 (x64 x19 x43) x43) x19))) (not (= (x64 (x64 x100 x43) x43) x100)))) (and (not (= x68 (x64 (x64 x68 x105) x105))) (and (not (= x100 (x64 (x64 x100 x105) x105))) (and (and (not (= (x64 (x64 x43 x105) x105) x43)) (not (= x105 (x64 (x64 x105 x105) x105)))) (not (= x19 (x64 (x64 x19 x105) x105))))))) (and (not (= (x64 (x64 x68 x19) x19) x68)) (and (not (= x100 (x64 (x64 x100 x19) x19))) (and (not (= x19 (x64 (x64 x19 x19) x19))) (and (not (= x43 (x64 (x64 x43 x19) x19))) (not (= x105 (x64 (x64 x105 x19) x19)))))))) (and (and (not (= x100 (x64 (x64 x100 x100) x100))) (and (and (not (= x105 (x64 (x64 x105 x100) x100))) (not (= (x64 (x64 x43 x100) x100) x43))) (not (= x19 (x64 (x64 x19 x100) x100))))) (not (= (x64 (x64 x68 x100) x100) x68))))))
(check-sat)
(exit)
